c seed 1858064912
c width 10
c scramble 1
c layers 1
c equalities 0
c ands 0
c layer[0] = [1..10] w=10 v=10 c=30 r=3.00 q=0
p cnf 10 30
-7 2 -5 0
-1 -6 0
8 -3 10 0
-9 3 6 0
1 -10 -4 0
9 5 -2 7 0
-8 4 -7 -9 1 2 0
-3 6 9 0
1 8 10 0
7 -6 -4 0
-7 10 -8 0
-7 5 -4 10 6 -3 0
-5 -8 2 -9 4 6 3 0
8 -3 9 0
3 -5 10 0
-10 -6 5 -3 0
-1 -8 3 5 0
-8 -7 5 10 1 0
-8 -1 7 0
1 3 0
3 -1 8 0
7 -1 -5 8 0
4 8 7 6 -10 0
-5 10 -9 -4 -6 3 0
-3 1 8 0
-8 7 2 4 0
-5 -6 9 -4 0
-7 -6 -10 5 -3 -9 0
-2 -5 10 0
-3 5 -9 0
